unsat
(define-fun f ((x (_ BitVec 64))) (_ BitVec 64) (im (bvand #b0000000000000000000000000000000000000000000000000000000000000001 (shesh x)) #b0000000000000000000000000000000000000000000000000000000000000010 #b0000000000000000000000000000000000000000000000000000000000000000))
0.01user 0.00system 0:00.02elapsed 100%CPU (0avgtext+0avgdata 25308maxresident)k
0inputs+8outputs (0major+958minor)pagefaults 0swaps
